************************************************************************
file with basedata            : md358_.bas
initial value random generator: 741109707
************************************************************************
projects                      :  1
jobs (incl. supersource/sink ):  22
horizon                       :  157
RESOURCES
  - renewable                 :  2   R
  - nonrenewable              :  2   N
  - doubly constrained        :  0   D
************************************************************************
PROJECT INFORMATION:
pronr.  #jobs rel.date duedate tardcost  MPM-Time
    1     20      0       27       18       27
************************************************************************
PRECEDENCE RELATIONS:
jobnr.    #modes  #successors   successors
   1        1          3           2   3   4
   2        3          3           5   7  11
   3        3          2           6  11
   4        3          2           9  13
   5        3          3           6  12  17
   6        3          3           8  13  15
   7        3          1          10
   8        3          3           9  10  21
   9        3          1          14
  10        3          2          16  20
  11        3          2          12  17
  12        3          3          13  14  15
  13        3          2          18  21
  14        3          1          16
  15        3          3          16  20  21
  16        3          1          18
  17        3          1          20
  18        3          1          19
  19        3          1          22
  20        3          1          22
  21        3          1          22
  22        1          0        
************************************************************************
REQUESTS/DURATIONS:
jobnr. mode duration  R 1  R 2  N 1  N 2
------------------------------------------------------------------------
  1      1     0       0    0    0    0
  2      1     3       9    6    7    8
         2     3       6    7    8    8
         3     5       1    3    6    7
  3      1     2       8    6    7    3
         2     4       6    6    6    3
         3     8       4    5    4    3
  4      1     1       4    2    8    7
         2     4       4    1    8    6
         3     6       4    1    8    4
  5      1     1       3    6    8    7
         2     3       3    6    7    5
         3     7       2    6    5    4
  6      1     3       8    9    9    6
         2    10       5    9    6    3
         3    10       6    9    5    4
  7      1     5       9    3    9    5
         2     6       6    2    7    3
         3    10       5    2    7    3
  8      1     3      10   10    8    6
         2     9       8    9    5    4
         3     9       8   10    3    3
  9      1     2       7    6    8    9
         2     7       7    5    6    8
         3     7       6    5    7    8
 10      1     2       4    8    6    2
         2     3       4    7    5    2
         3     8       3    6    5    2
 11      1     1       7    8    8    2
         2     2       4    7    8    1
         3     5       4    7    4    1
 12      1     6       9    6    4    7
         2     9       8    6    4    6
         3    10       6    6    4    4
 13      1     4       8    4    9    8
         2     9       7    3    9    6
         3     9       7    3    8    7
 14      1     2       9    7    6    7
         2     6       6    4    4    3
         3     6       4    3    6    7
 15      1     1       9    5    7    9
         2     2       8    5    5    5
         3     7       7    5    4    5
 16      1     3       4    7    6    6
         2     6       3    7    4    4
         3     6       4    7    4    3
 17      1     2       6    9    8    7
         2     6       5    7    7    1
         3     6       2    9    6    4
 18      1     7       8    7    2    5
         2     8       7    6    1    3
         3     9       7    4    1    1
 19      1     3       3    6    8    2
         2     5       2    3    6    2
         3     9       1    1    6    2
 20      1     8       4    7    9    8
         2     9       2    5    9    6
         3    10       1    3    9    2
 21      1     5       8    6    7    8
         2     6       6    5    5    6
         3    10       3    4    5    4
 22      1     0       0    0    0    0
************************************************************************
RESOURCEAVAILABILITIES:
  R 1  R 2  N 1  N 2
   20   18  114   82
************************************************************************
MAXIMAL LAGS:
from  to  type  delay
    1   12   ES      0
    1    2   ES      0
    2   12   ES      0
    1    3   ES      0
    3   12   ES      0
    1    4   ES      0
    4   12   ES      0
    1    5   ES      0
    5   12   ES      0
    1    6   ES      0
    6   12   ES      0
    1    7   ES      0
    7   12   ES      0
    1    8   ES      0
    8   12   ES      0
    1    9   ES      0
    9   12   ES      0
    1   10   ES      0
   10   12   ES      0
    1   11   ES      0
   11   12   ES      0
    1   12   ES      0
    2    5   SS      1
    2    5   SE      3
    2    5   ES     -7
    2    5   EE    -11
    2    7   SS    -11
    2    7   SE    -12
    2    7   ES     -1
    2    7   EE     -8
    2   11   SS    -10
    2   11   SE     -4
    2   11   ES     10
    2   11   EE     10
    3    6   SS     -9
    3    6   SE     12
    3    6   ES    -11
    3    6   EE      3
    3   11   SS    -12
    3   11   SE      2
    3   11   ES     -9
    3   11   EE      1
    4    9   SS     -5
    4    9   SE     -4
    4    9   ES      5
    4    9   EE     -1
    4   13   SS    -12
    4   13   SE      8
    4   13   ES      9
    4   13   EE      5
    5    6   SS      7
    5    6   SE     -2
    5    6   ES     -9
    5    6   EE     -7
    5   17   SS     -6
    5   17   SE      2
    5   17   ES    -12
    5   17   EE      4
    6    8   SS     -1
    6    8   SE    -10
    6    8   ES     12
    6    8   EE     -9
    6   13   SS     12
    6   13   SE      6
    6   13   ES     12
    6   13   EE    -10
    6   15   SS      7
    6   15   SE     -4
    6   15   ES      8
    6   15   EE     -3
    7   10   SS     -1
    7   10   SE     -4
    7   10   ES     -1
    7   10   EE      1
    8    9   SS      7
    8    9   SE      3
    8    9   ES     -8
    8    9   EE      7
    8   10   SS      0
    8   10   SE     -1
    8   10   ES     -2
    8   10   EE      0
    8   21   SS     -9
    8   21   SE      7
    8   21   ES     -7
    8   21   EE      2
    9   14   SS      1
    9   14   SE      3
    9   14   ES    -10
    9   14   EE     -5
   10   16   SS      2
   10   16   SE      2
   10   16   ES     11
   10   16   EE      9
   10   20   SS     -9
   10   20   SE     10
   10   20   ES     12
   10   20   EE      9
   11   17   SS      4
   11   17   SE      4
   11   17   ES      1
   11   17   EE     12
   12   13   SS     -8
   12   13   SE      1
   12   13   ES     -5
   12   13   EE      6
   12   14   SS     -1
   12   14   SE      0
   12   14   ES     -9
   12   14   EE     -8
   12   15   SS     11
   12   15   SE      0
   12   15   ES     12
   12   15   EE      0
   13   18   SS     12
   13   18   SE      2
   13   18   ES      5
   13   18   EE     -5
   13   21   SS    -12
   13   21   SE     -1
   13   21   ES     -1
   13   21   EE      3
   14   16   SS     -6
   14   16   SE      2
   14   16   ES     -9
   14   16   EE     -6
   15   16   SS      5
   15   16   SE      4
   15   16   ES      3
   15   16   EE     11
   15   20   SS     -3
   15   20   SE    -11
   15   20   ES     -7
   15   20   EE     11
   15   21   SS     -8
   15   21   SE     -6
   15   21   ES      9
   15   21   EE      8
   16   18   SS     10
   16   18   SE     12
   16   18   ES     -3
   16   18   EE      9
   17   20   SS      0
   17   20   SE    -10
   17   20   ES     -3
   17   20   EE     -3
   18   19   SS      0
   18   19   SE      0
   18   19   ES     -7
   18   19   EE      3
   19   22   SS      1
   19   22   SE     -6
   19   22   ES     11
   19   22   EE     -6
   20   22   SS    -12
   20   22   SE     -3
   20   22   ES      9
   20   22   EE     -9
   21   22   SS    -10
   21   22   SE      2
   21   22   ES      1
   21   22   EE     12
************************************************************************
